11
0 85 9 23 93 15 21 81 96 94 45 
100 0 13 53 64 24 70 25 29 48 41 
56 84 0 74 56 54 37 26 3 96 63 
63 37 67 0 16 85 63 7 95 14 3 
59 10 12 53 0 22 53 6 18 2 30 
19 55 24 19 87 0 88 68 81 35 48 
62 78 63 51 21 82 0 74 49 96 69 
2 79 6 24 33 27 74 0 36 83 85 
87 15 20 95 68 14 24 81 0 67 54 
25 41 7 60 54 89 88 47 26 0 98 
6 31 2 43 4 99 54 51 26 54 0 
